; POP PUSH 0x00 PUSH cw_1 MUL => PUSH 0x00 AND
(set-option :produce-proofs true)
; 
(set-info :status unknown)
(declare-fun storage_t ((_ BitVec 256) (_ BitVec 256) Int (_ BitVec 256)) (_ BitVec 256))
(declare-fun w_1 () (_ BitVec 256))
(declare-fun storage_s ((_ BitVec 256) (_ BitVec 256) Int (_ BitVec 256)) (_ BitVec 256))
(declare-fun exc_halt_t (Int) Bool)
(declare-fun exc_halt_s (Int) Bool)
(declare-fun stack_t ((_ BitVec 256) (_ BitVec 256) Int (_ BitVec 6)) (_ BitVec 256))
(declare-fun stack_s ((_ BitVec 256) (_ BitVec 256) Int (_ BitVec 6)) (_ BitVec 256))
(declare-fun sc_t (Int) (_ BitVec 6))
(declare-fun sc_s (Int) (_ BitVec 6))
(declare-fun used_gas_t ((_ BitVec 256) (_ BitVec 256) Int) Int)
(declare-fun used_gas_s ((_ BitVec 256) (_ BitVec 256) Int) Int)
(assert
 (exists ((x_0 (_ BitVec 256)) )(let (($x8525 (forall ((w (_ BitVec 256)) )(let ((?x1230 (storage_t x_0 w_1 2 w)))
 (let ((?x1699 (storage_s x_0 w_1 4 w)))
 (= ?x1699 ?x1230))))
 ))
 (let (($x903 (exc_halt_t 2)))
 (let (($x64 (exc_halt_s 4)))
 (let (($x279 (= $x64 $x903)))
 (let (($x8467 (forall ((n (_ BitVec 6)) )(let ((?x6705 (stack_t x_0 w_1 2 n)))
 (let ((?x1886 (stack_s x_0 w_1 4 n)))
 (let (($x8220 (= ?x1886 ?x6705)))
 (let ((?x4056 (sc_t 2)))
 (let (($x2976 (bvsle ?x4056 n)))
 (or $x2976 $x8220)))))))
 ))
 (let ((?x4056 (sc_t 2)))
 (let ((?x4305 (sc_s 4)))
 (let (($x5293 (= ?x4305 ?x4056)))
 (let ((?x1709 (used_gas_t x_0 w_1 0)))
 (let ((?x8370 (used_gas_s x_0 w_1 0)))
 (let (($x1417 (= ?x8370 ?x1709)))
 (let (($x5100 (forall ((w (_ BitVec 256)) )(let ((?x5932 (storage_t x_0 w_1 0 w)))
 (let ((?x6200 (storage_s x_0 w_1 0 w)))
 (= ?x6200 ?x5932))))
 ))
 (let (($x56 (exc_halt_t 0)))
 (let (($x57 (exc_halt_s 0)))
 (let (($x58 (= $x57 $x56)))
 (let (($x11725 (forall ((n (_ BitVec 6)) )(let ((?x63 (sc_t 0)))
 (let (($x10780 (bvsle ?x63 n)))
 (let ((?x6709 (stack_t x_0 w_1 0 n)))
 (let ((?x6042 (stack_s x_0 w_1 0 n)))
 (let (($x5304 (= ?x6042 ?x6709)))
 (or $x5304 $x10780)))))))
 ))
 (let ((?x63 (sc_t 0)))
 (let ((?x72 (sc_s 0)))
 (let (($x73 (= ?x72 ?x63)))
 (let (($x5659 (= $x903 (or (exc_halt_t 1) (not (bvsle (_ bv0 6) (bvadd (_ bv62 6) (sc_t 1))))))))
 (let (($x11475 (forall ((w (_ BitVec 256)) )(let ((?x9317 (storage_t x_0 w_1 1 w)))
 (let ((?x1230 (storage_t x_0 w_1 2 w)))
 (= ?x1230 ?x9317))))
 ))
 (let (($x1893 (forall ((n (_ BitVec 6)) )(let ((?x4023 (sc_t 1)))
 (let ((?x4968 (bvadd (_ bv62 6) ?x4023)))
 (let (($x5510 (bvsle ?x4968 n)))
 (or $x5510 (= (stack_t x_0 w_1 2 n) (stack_t x_0 w_1 1 n)))))))
 ))
 (let (($x10059 (= (used_gas_t x_0 w_1 2) (+ 3 (used_gas_t x_0 w_1 1)))))
 (let ((?x3854 (bvor (bvnot (stack_t x_0 w_1 1 (bvadd (_ bv63 6) (sc_t 1)))) (bvnot (stack_t x_0 w_1 1 (bvadd (_ bv62 6) (sc_t 1)))))))
 (let (($x1920 (exc_halt_t 1)))
 (let (($x10495 (= $x1920 (or $x56 (not (= ((_ extract 6 6) (bvadd (_ bv1 7) (concat (_ bv0 1) ?x63))) (_ bv0 1)))))))
 (let (($x11571 (forall ((w (_ BitVec 256)) )(let ((?x5932 (storage_t x_0 w_1 0 w)))
 (let ((?x9317 (storage_t x_0 w_1 1 w)))
 (= ?x9317 ?x5932))))
 ))
 (let (($x11353 (forall ((n (_ BitVec 6)) )(let ((?x63 (sc_t 0)))
 (let (($x10780 (bvsle ?x63 n)))
 (or (= (stack_t x_0 w_1 1 n) (stack_t x_0 w_1 0 n)) $x10780))))
 ))
 (let ((?x4023 (sc_t 1)))
 (let (($x5045 (= ?x4023 (bvadd (_ bv1 6) ?x63))))
 (let (($x6564 (= $x64 (or (exc_halt_s 3) (not (bvsle (_ bv0 6) (bvadd (_ bv62 6) (sc_s 3))))))))
 (let (($x5137 (forall ((w (_ BitVec 256)) )(let ((?x11104 (storage_s x_0 w_1 3 w)))
 (let ((?x1699 (storage_s x_0 w_1 4 w)))
 (= ?x1699 ?x11104))))
 ))
 (let (($x4766 (forall ((n (_ BitVec 6)) )(let ((?x275 (sc_s 3)))
 (let ((?x5800 (bvadd (_ bv62 6) ?x275)))
 (let (($x8910 (bvsle ?x5800 n)))
 (or (= (stack_s x_0 w_1 4 n) (stack_s x_0 w_1 3 n)) $x8910)))))
 ))
 (let ((?x275 (sc_s 3)))
 (let ((?x3193 (bvadd (_ bv63 6) ?x275)))
 (let (($x7611 (= ?x4305 ?x3193)))
 (let (($x10024 (= (used_gas_s x_0 w_1 4) (+ 5 (used_gas_s x_0 w_1 3)))))
 (let ((?x4096 (bvmul (stack_s x_0 w_1 3 (bvadd (_ bv62 6) ?x275)) (stack_s x_0 w_1 3 ?x3193))))
 (let (($x6785 (not (= ((_ extract 6 6) (bvadd (_ bv1 7) (concat (_ bv0 1) (sc_s 2)))) (_ bv0 1)))))
 (let (($x247 (exc_halt_s 2)))
 (let (($x292 (exc_halt_s 3)))
 (let (($x7224 (= $x292 (or $x247 $x6785))))
 (let (($x7774 (forall ((w (_ BitVec 256)) )(let ((?x2121 (storage_s x_0 w_1 2 w)))
 (let ((?x11104 (storage_s x_0 w_1 3 w)))
 (= ?x11104 ?x2121))))
 ))
 (let (($x192 (forall ((n (_ BitVec 6)) )(let ((?x218 (sc_s 2)))
 (let (($x9668 (bvsle ?x218 n)))
 (or (= (stack_s x_0 w_1 3 n) (stack_s x_0 w_1 2 n)) $x9668))))
 ))
 (let (($x4630 (= ?x275 (bvadd (_ bv1 6) (sc_s 2)))))
 (let ((?x4161 (used_gas_s x_0 w_1 3)))
 (let (($x2045 (not (= ((_ extract 6 6) (bvadd (_ bv1 7) (concat (_ bv0 1) (sc_s 1)))) (_ bv0 1)))))
 (let (($x189 (exc_halt_s 1)))
 (let (($x8902 (= $x247 (or $x189 $x2045))))
 (let (($x10859 (forall ((w (_ BitVec 256)) )(let ((?x11607 (storage_s x_0 w_1 1 w)))
 (let ((?x2121 (storage_s x_0 w_1 2 w)))
 (= ?x2121 ?x11607))))
 ))
 (let (($x4591 (forall ((n (_ BitVec 6)) )(let ((?x154 (sc_s 1)))
 (let (($x2897 (bvsle ?x154 n)))
 (or $x2897 (= (stack_s x_0 w_1 2 n) (stack_s x_0 w_1 1 n))))))
 ))
 (let ((?x218 (sc_s 2)))
 (let (($x1095 (= ?x218 (bvadd (_ bv1 6) (sc_s 1)))))
 (let ((?x355 (used_gas_s x_0 w_1 2)))
 (let (($x2718 (forall ((w (_ BitVec 256)) )(let ((?x6200 (storage_s x_0 w_1 0 w)))
 (let ((?x11607 (storage_s x_0 w_1 1 w)))
 (= ?x11607 ?x6200))))
 ))
 (let (($x4645 (forall ((n (_ BitVec 6)) )(let ((?x72 (sc_s 0)))
 (let ((?x8369 (bvadd (_ bv63 6) ?x72)))
 (let (($x3627 (bvsle ?x8369 n)))
 (or $x3627 (= (stack_s x_0 w_1 1 n) (stack_s x_0 w_1 0 n)))))))
 ))
 (let (($x52 (forall ((w (_ BitVec 256)) )(let ((?x6200 (storage_s x_0 w_1 0 w)))
 (= ?x6200 (_ bv0 256))))
 ))
 (let (($x2389 (= ?x8370 0)))
 (let (($x9872 (not $x57)))
 (let (($x797 (= (stack_s x_0 w_1 0 (_ bv0 6)) x_0)))
 (let (($x8685 (= ?x72 (_ bv1 6))))
 (and $x8685 $x797 $x9872 $x2389 $x52 (= (used_gas_s x_0 w_1 1) (+ 2 ?x8370)) (= (sc_s 1) (bvadd (_ bv63 6) ?x72)) $x4645 $x2718 (= $x189 (or $x57 (not (bvsle (_ bv0 6) (bvadd (_ bv63 6) ?x72))))) (= (stack_s x_0 w_1 2 (sc_s 1)) (_ bv0 256)) (= ?x355 (+ 3 (used_gas_s x_0 w_1 1))) $x1095 $x4591 $x10859 $x8902 (= (stack_s x_0 w_1 3 ?x218) w_1) (= ?x4161 (+ 3 ?x355)) $x4630 $x192 $x7774 $x7224 (= (stack_s x_0 w_1 4 (bvadd (_ bv63 6) ?x4305)) ?x4096) $x10024 $x7611 $x4766 $x5137 $x6564 (= (stack_t x_0 w_1 1 ?x63) (_ bv0 256)) (= (used_gas_t x_0 w_1 1) (+ 3 ?x1709)) $x5045 $x11353 $x11571 $x10495 (= (stack_t x_0 w_1 2 (bvadd (_ bv63 6) ?x4056)) (bvnot ?x3854)) $x10059 (= ?x4056 (bvadd (_ bv63 6) ?x4023)) $x1893 $x11475 $x5659 $x73 $x11725 $x58 $x5100 $x1417 (not (and $x5293 $x8467 $x279 $x8525)))))))))))))))))))))))))))))))))))))))))))))))))))))))))))))))))
 )
(check-sat)
(get-proof)
